\ENCODING=ISO-8859-1
\Problem name: 

Minimize
 obj: x1 + x2 + x3 + x4 + x5 + x6 + x7 + x8 + x9 + x10 + x11 + x12 + x13 + x14
      + x15 + x16 + 2 x17 + 2 x18 + 2 x19 + 2 x20 + 2 x21 + 2 x22 + 2 x23
      + 2 x24 + 2 x25 + 2 x26 + 2 x27 + 2 x28 + 2 x29 + 2 x30 + 2 x31 + 3 x32
      + 3 x33 + 3 x34 + 3 x35 + 3 x36 + 3 x37 + 3 x38 + 3 x39 + 3 x40 + 3 x41
      + 3 x42 + 3 x43 + 3 x44 + 3 x45 + 3 x46 + 3 x47 + 3 x48 + 3 x49 + 3 x50
      + 3 x51 + 4 x52 + 4 x53 + 4 x54 + 4 x55 + 4 x56 + 4 x57 + 4 x58 + 4 x59
      + 4 x60 + 4 x61 + 4 x62 + 5 x63 + 5 x64 + 5 x65 + 5 x66 + 5 x67 + 5 x68
      + 5 x69 + 5 x70 + 5 x71 + 5 x72 + 5 x73 + 5 x74 + 5 x75 + 5 x76 + 5 x77
      + 5 x78 + 5 x79 + 5 x80 + 6 x81 + 6 x82 + 6 x83 + 6 x84 + 6 x85 + 6 x86
      + 6 x87 + 6 x88 + 6 x89 + 6 x90 + 6 x91 + 6 x92 + 6 x93 + 6 x94 + 6 x95
      + 6 x96 + 6 x97 + 6 x98 + 7 x99 + 7 x100 + 7 x101 + 7 x102 + 7 x103
      + 7 x104 + 7 x105 + 7 x106 + 7 x107 + 7 x108 + 7 x109 + 7 x110 + 7 x111
      + 7 x112 + 7 x113 + 7 x114 + 7 x115 + 7 x116 + 7 x117 + 8 x118 + 8 x119
      + 8 x120 + 8 x121 + 8 x122 + 8 x123 + 8 x124 + 8 x125 + 8 x126 + 8 x127
      + 8 x128 + 8 x129 + 8 x130 + 9 x131 + 9 x132 + 9 x133 + 9 x134 + 9 x135
      + 9 x136 + 9 x137 + 9 x138 + 9 x139 + 9 x140 + 9 x141 + 9 x142 + 9 x143
      + 9 x144 + 9 x145 + 9 x146 + 10 x147 + 10 x148 + 10 x149 + 10 x150
      + 10 x151 + 10 x152 + 10 x153 + 11 x154 + 11 x155 + 11 x156 + 11 x157
      + 11 x158 + 11 x159 + 11 x160 + 11 x161 + 11 x162 + 11 x163 + 11 x164
      + 11 x165 + 12 x166 + 12 x167 + 12 x168 + 12 x169 + 12 x170 + 12 x171
      + 12 x172 + 12 x173 + 12 x174 + 13 x175 + 13 x176 + 13 x177 + 13 x178
      + 13 x179 + 13 x180 + 14 x181 + 14 x182 + 14 x183 + 14 x184 + 14 x185
      + 14 x186 + 14 x187 + 14 x188 + 14 x189 + 14 x190 + 15 x191 + 15 x192
      + 15 x193 + 15 x194 + 15 x195 + 15 x196 + 15 x197 + 16 x198 + 16 x199
      + 16 x200 + 16 x201 + 17 x202 + 17 x203 + 17 x204 + 18 x205 + 18 x206
      + 18 x207 + 18 x208 + 18 x209 + 18 x210 + 18 x211 + 19 x212 + 19 x213
      + 19 x214 + 20 x215 + 20 x216 + 21 x217 + 21 x218 + 21 x219 + 21 x220
      + 22 x221 + 22 x222 + 22 x223 + 23 x224 + 23 x225 + 24 x226 + 25 x227
      + 25 x228 + 25 x229 + 27 x230 + 27 x231 + 30 x232 + 32 x233
Subject To
 c1:   x7 + x84 + x105 + x120 + x204 + x212 >= 1
 c2:   x36 + x42 + x49 + x86 + x181 >= 1
 c3:   x124 + x141 + x213 + x226 >= 1
 c4:   x92 + x114 + x151 + x178 + x222 >= 1
 c5:   x29 + x70 + x84 + x138 + x159 >= 1
 c6:   x69 + x93 + x182 + x200 + x202 + x203 + x230 >= 1
 c7:   x24 + x55 + x227 >= 1
 c8:   x4 + x11 + x43 + x86 + x132 + x191 + x205 >= 1
 c9:   x61 + x96 + x129 + x132 + x133 + x163 >= 1
 c10:  x38 + x81 + x91 + x113 + x150 + x158 + x182 + x205 + x214 >= 1
 c11:  x54 + x83 + x139 + x149 + x217 + x221 + x222 >= 1
 c12:  x48 + x71 + x95 + x140 + x158 + x228 + x230 >= 1
 c13:  x5 + x12 + x21 + x68 + x89 + x201 + x223 >= 1
 c14:  x22 + x45 + x55 + x101 >= 1
 c15:  x26 + x37 + x77 + x104 + x114 + x124 + x171 >= 1
 c16:  x23 + x85 + x131 + x211 >= 1
 c17:  x10 + x20 + x40 + x157 + x175 + x208 >= 1
 c18:  x10 + x139 + x189 + x191 + x232 >= 1
 c19:  x123 + x125 + x165 + x168 + x171 + x172 + x179 >= 1
 c20:  x82 + x85 + x122 + x156 + x164 + x220 >= 1
 c21:  x1 + x42 + x154 + x230 >= 1
 c22:  x7 + x63 + x88 + x148 + x176 + x182 >= 1
 c23:  x36 + x46 + x119 + x127 + x141 + x187 + x217 >= 1
 c24:  x17 + x182 + x197 + x221 >= 1
 c25:  x76 + x92 + x133 + x157 + x160 + x166 + x168 + x188 >= 1
 c26:  x134 + x196 + x199 >= 1
 c27:  x64 + x78 + x122 + x131 + x165 + x231 >= 1
 c28:  x17 + x48 + x218 >= 1
 c29:  x37 + x54 + x91 + x192 >= 1
 c30:  x20 + x58 + x63 + x133 + x199 >= 1
 c31:  x52 + x118 + x147 >= 1
 c32:  x80 + x138 + x143 + x155 + x175 + x181 + x189 + x200 + x215 >= 1
 c33:  x28 + x190 >= 1
 c34:  x53 + x57 + x112 + x131 + x149 + x160 + x162 + x198 + x199 + x203 + x206
       + x222 >= 1
 c35:  x31 + x152 + x218 + x221 + x223 + x226 >= 1
 c36:  x2 + x34 + x74 + x96 + x156 >= 1
 c37:  x3 + x32 + x33 + x99 >= 1
 c38:  x7 + x62 + x85 + x88 + x147 + x205 >= 1
 c39:  x5 + x13 + x35 + x167 + x168 >= 1
 c40:  x9 >= 1
 c41:  x4 + x119 + x170 + x172 >= 1
 c42:  x44 + x51 + x59 + x108 + x191 + x194 + x229 >= 1
 c43:  x24 + x90 + x128 + x147 + x189 + x198 + x223 >= 1
 c44:  x175 + x180 + x190 + x197 + x205 + x216 + x225 + x227 + x233 >= 1
 c45:  x53 + x63 + x87 + x110 + x121 + x142 >= 1
 c46:  x50 + x68 + x74 + x82 + x105 + x154 + x162 + x198 + x204 >= 1
 c47:  x82 + x132 + x144 + x157 + x202 + x210 + x216 + x233 >= 1
 c48:  x8 + x66 + x73 + x106 + x185 >= 1
 c49:  x18 + x33 + x228 + x230 >= 1
 c50:  x12 + x76 + x100 + x219 >= 1
 c51:  x34 + x77 + x172 + x178 + x198 + x203 + x216 + x224 >= 1
 c52:  x105 + x207 + x212 + x213 >= 1
 c53:  x6 + x33 + x99 + x138 + x148 + x212 + x232 >= 1
 c54:  x35 + x66 + x88 + x120 + x124 + x183 + x217 >= 1
 c55:  x16 + x100 + x131 + x140 + x145 + x191 >= 1
 c56:  x147 + x150 + x176 + x223 >= 1
 c57:  x126 + x140 + x146 + x153 + x193 >= 1
 c58:  x49 + x67 + x124 + x134 + x167 + x216 >= 1
 c59:  x3 + x41 + x44 + x65 + x115 + x149 + x153 + x231 >= 1
 c60:  x34 + x46 + x75 + x81 + x166 >= 1
 c61:  x95 + x192 + x198 >= 1
 c62:  x28 + x101 + x104 + x150 + x155 + x200 + x230 >= 1
 c63:  x56 + x116 + x161 + x189 + x192 + x213 >= 1
 c64:  x19 + x33 + x100 + x158 + x183 >= 1
 c65:  x43 + x54 + x93 + x195 + x216 >= 1
 c66:  x33 + x57 + x83 + x176 + x224 >= 1
 c67:  x1 + x154 + x227 >= 1
 c68:  x46 + x68 + x87 + x151 + x209 + x226 + x231 >= 1
 c69:  x42 + x82 + x133 >= 1
 c70:  x3 + x32 + x53 + x83 + x93 + x133 + x156 + x166 + x173 + x199 + x203
       >= 1
 c71:  x14 + x25 + x102 + x160 + x200 >= 1
 c72:  x47 + x82 + x213 + x228 + x233 >= 1
 c73:  x52 + x69 + x75 + x112 + x194 >= 1
 c74:  x15 + x71 + x161 >= 1
 c75:  x24 + x84 + x101 + x109 + x124 + x175 + x184 + x202 >= 1
 c76:  x45 + x53 + x145 + x147 + x227 >= 1
 c77:  x64 + x98 + x102 + x109 + x178 + x181 + x188 + x199 + x206 + x213 + x221
       >= 1
 c78:  x39 + x47 + x107 + x149 + x161 + x181 + x223 >= 1
 c79:  x30 >= 1
 c80:  x103 + x152 + x181 + x186 + x194 >= 1
 c81:  x66 + x72 + x192 + x198 >= 1
 c82:  x62 + x108 + x127 + x162 + x169 + x184 + x222 >= 1
 c83:  x19 + x70 + x107 >= 1
 c84:  x37 + x126 + x128 + x202 >= 1
 c85:  x59 + x185 >= 1
 c86:  x1 + x55 + x60 + x81 + x217 >= 1
 c87:  x68 + x127 + x138 + x178 + x225 >= 1
 c88:  x150 + x168 + x173 + x184 + x229 >= 1
 c89:  x21 + x65 + x90 + x100 + x159 + x174 + x183 >= 1
 c90:  x94 + x131 + x169 >= 1
 c91:  x102 + x111 + x135 + x157 + x161 + x223 >= 1
 c92:  x116 + x125 + x134 + x175 + x203 + x224 >= 1
 c93:  x1 + x26 + x32 + x64 + x67 + x99 + x187 + x205 >= 1
 c94:  x47 + x55 + x66 + x97 + x167 + x177 + x187 + x215 >= 1
 c95:  x129 + x132 + x144 + x207 + x211 + x218 + x225 + x230 >= 1
 c96:  x25 + x33 + x119 + x134 + x198 + x232 >= 1
 c97:  x25 + x27 + x35 + x177 + x206 >= 1
 c98:  x36 + x50 + x136 + x227 >= 1
 c99:  x1 + x59 + x108 + x137 + x186 >= 1
 c100: x52 + x114 + x135 + x191 + x203 >= 1
 c101: x56 + x75 + x150 + x179 + x183 + x214 + x217 + x225 >= 1
 c102: x43 + x64 + x129 + x141 + x153 + x159 >= 1
 c103: x34 + x52 + x60 + x101 + x104 + x152 + x210 >= 1
 c104: x20 + x73 + x125 + x137 + x230 >= 1
 c105: x13 + x38 + x67 + x76 + x103 >= 1
 c106: x51 + x71 + x115 + x148 + x226 >= 1
 c107: x23 + x34 + x176 >= 1
 c108: x22 + x70 + x134 + x164 >= 1
 c109: x34 + x40 + x52 + x82 + x160 + x182 + x189 >= 1
 c110: x37 + x56 + x83 + x143 + x146 + x182 + x195 + x202 + x212 >= 1
 c111: x74 + x104 + x167 + x170 + x191 >= 1
 c112: x83 + x104 + x123 + x149 + x225 >= 1
 c113: x45 + x70 + x123 + x155 + x192 >= 1
 c114: x110 + x138 + x173 + x177 + x187 + x204 + x228 + x232 >= 1
 c115: x65 + x92 + x122 + x202 + x207 >= 1
 c116: x86 + x148 + x156 + x193 + x231 + x232 >= 1
 c117: x16 >= 1
 c118: x2 + x107 + x201 + x209 >= 1
 c119: x45 + x66 + x100 + x121 + x151 + x153 + x219 >= 1
 c120: x52 + x81 + x207 >= 1
 c121: x121 + x142 + x195 + x199 + x224 >= 1
 c122: x1 + x9 + x67 + x158 >= 1
 c123: x12 + x52 + x119 + x144 + x151 + x208 + x233 >= 1
 c124: x22 + x27 + x40 + x79 >= 1
 c125: x91 + x106 + x112 + x192 + x193 >= 1
 c126: x32 + x41 + x110 + x121 + x157 + x169 >= 1
 c127: x8 + x100 + x188 + x202 + x206 + x207 >= 1
 c128: x107 + x194 + x218 + x232 >= 1
 c129: x132 + x135 + x155 + x175 + x208 + x217 >= 1
 c130: x36 + x65 + x137 + x142 >= 1
 c131: x20 + x72 + x85 + x125 + x175 + x231 >= 1
 c132: x18 + x41 + x57 + x64 + x171 + x179 >= 1
 c133: x6 + x42 + x67 + x87 + x136 + x166 + x200 >= 1
 c134: x6 + x63 + x118 + x137 + x155 + x212 >= 1
 c135: x88 + x102 + x103 + x140 + x141 + x196 + x218 >= 1
 c136: x11 + x22 + x64 + x116 + x154 >= 1
 c137: x99 + x133 + x163 + x174 + x209 >= 1
 c138: x2 + x38 + x39 + x85 + x89 + x156 >= 1
 c139: x68 + x113 + x135 + x147 + x180 + x229 + x232 >= 1
 c140: x97 + x109 + x139 + x219 >= 1
 c141: x53 + x73 + x157 + x195 + x199 + x222 >= 1
 c142: x17 + x19 + x126 + x190 + x205 + x215 >= 1
 c143: x89 + x97 + x128 + x130 + x154 >= 1
 c144: x3 + x18 + x66 + x71 + x118 + x155 + x200 >= 1
 c145: x23 + x94 + x123 + x185 + x207 >= 1
 c146: x120 + x137 + x164 + x188 + x198 + x214 + x216 + x226 + x230 >= 1
 c147: x1 + x10 + x28 + x63 + x90 + x111 + x132 + x139 + x220 + x232 >= 1
 c148: x2 + x18 + x53 + x143 + x219 >= 1
 c149: x32 + x63 + x102 + x103 + x109 + x117 + x119 >= 1
 c150: x17 + x41 + x135 + x205 >= 1
 c151: x127 + x130 + x220 + x221 >= 1
 c152: x8 + x118 + x172 + x175 + x184 >= 1
 c153: x50 + x120 + x147 + x168 + x170 + x206 >= 1
 c154: x39 + x95 + x123 + x163 >= 1
 c155: x26 + x166 + x170 + x191 >= 1
 c156: x3 + x27 + x32 + x46 + x106 + x121 + x134 + x178 + x218 >= 1
 c157: x4 + x37 + x105 + x162 + x186 + x230 >= 1
 c158: x11 + x49 + x64 + x167 >= 1
 c159: x117 + x145 + x159 + x181 + x231 >= 1
 c160: x32 + x118 + x200 + x209 >= 1
 c161: x94 + x115 + x174 + x214 + x219 + x220 + x228 + x231 >= 1
 c162: x30 + x35 + x44 + x58 + x105 + x125 + x221 >= 1
 c163: x54 + x60 + x78 + x102 + x147 + x169 + x176 + x199 >= 1
 c164: x63 + x81 + x101 + x118 + x170 >= 1
 c165: x72 + x132 >= 1
 c166: x4 + x143 + x166 + x183 + x208 >= 1
 c167: x166 + x191 + x206 + x210 + x219 + x233 >= 1
 c168: x81 + x89 + x136 + x176 + x222 + x229 >= 1
 c169: x17 + x18 + x54 + x65 + x67 + x69 + x177 + x187 >= 1
 c170: x8 + x81 + x91 + x181 + x227 >= 1
 c171: x17 + x183 + x201 >= 1
 c172: x24 + x35 + x39 + x158 + x171 + x181 + x224 >= 1
 c173: x44 + x111 + x177 + x210 + x215 + x220 >= 1
 c174: x31 + x99 + x186 + x221 + x230 >= 1
 c175: x65 + x69 + x232 >= 1
 c176: x113 + x136 + x169 + x208 + x212 + x224 + x228 >= 1
 c177: x2 + x15 + x19 + x84 + x99 + x103 + x176 + x177 + x212 >= 1
 c178: x83 + x100 + x121 + x184 + x204 >= 1
 c179: x5 + x77 + x84 + x118 + x131 + x133 + x152 >= 1
 c180: x3 + x101 + x110 + x166 + x197 + x233 >= 1
 c181: x186 + x201 + x209 + x211 + x227 >= 1
 c182: x18 + x118 + x148 + x151 + x196 >= 1
 c183: x9 + x122 + x136 + x154 + x160 + x183 + x211 >= 1
 c184: x40 + x48 + x82 + x111 + x122 + x135 >= 1
 c185: x2 + x53 >= 1
 c186: x6 + x19 + x29 + x103 + x233 >= 1
 c187: x79 + x119 + x181 + x188 + x204 >= 1
 c188: x21 + x126 + x147 + x175 + x193 + x204 + x227 >= 1
 c189: x86 + x96 + x104 + x106 + x119 + x120 + x131 + x193 + x206 + x210 >= 1
 c190: x20 + x32 + x69 + x83 + x98 + x165 + x208 >= 1
 c191: x159 + x168 + x185 + x200 >= 1
 c192: x17 + x70 + x106 + x181 + x202 >= 1
 c193: x56 + x185 + x201 + x205 + x215 + x229 >= 1
 c194: x43 + x90 + x215 + x217 + x226 >= 1
 c195: x5 + x38 + x142 + x148 + x182 + x232 >= 1
 c196: x61 + x81 + x99 + x230 >= 1
 c197: x7 + x87 + x112 + x156 + x158 + x212 + x232 >= 1
 c198: x14 + x33 + x86 + x108 >= 1
 c199: x36 + x58 + x81 + x99 + x101 + x120 + x167 >= 1
 c200: x21 + x23 + x84 + x215 >= 1
Bounds
 0 <= x1 <= 1
 0 <= x2 <= 1
 0 <= x3 <= 1
 0 <= x4 <= 1
 0 <= x5 <= 1
 0 <= x6 <= 1
 0 <= x7 <= 1
 0 <= x8 <= 1
 0 <= x9 <= 1
 0 <= x10 <= 1
 0 <= x11 <= 1
 0 <= x12 <= 1
 0 <= x13 <= 1
 0 <= x14 <= 1
 0 <= x15 <= 1
 0 <= x16 <= 1
 0 <= x17 <= 1
 0 <= x18 <= 1
 0 <= x19 <= 1
 0 <= x20 <= 1
 0 <= x21 <= 1
 0 <= x22 <= 1
 0 <= x23 <= 1
 0 <= x24 <= 1
 0 <= x25 <= 1
 0 <= x26 <= 1
 0 <= x27 <= 1
 0 <= x28 <= 1
 0 <= x29 <= 1
 0 <= x30 <= 1
 0 <= x31 <= 1
 0 <= x32 <= 1
 0 <= x33 <= 1
 0 <= x34 <= 1
 0 <= x35 <= 1
 0 <= x36 <= 1
 0 <= x37 <= 1
 0 <= x38 <= 1
 0 <= x39 <= 1
 0 <= x40 <= 1
 0 <= x41 <= 1
 0 <= x42 <= 1
 0 <= x43 <= 1
 0 <= x44 <= 1
 0 <= x45 <= 1
 0 <= x46 <= 1
 0 <= x47 <= 1
 0 <= x48 <= 1
 0 <= x49 <= 1
 0 <= x50 <= 1
 0 <= x51 <= 1
 0 <= x52 <= 1
 0 <= x53 <= 1
 0 <= x54 <= 1
 0 <= x55 <= 1
 0 <= x56 <= 1
 0 <= x57 <= 1
 0 <= x58 <= 1
 0 <= x59 <= 1
 0 <= x60 <= 1
 0 <= x61 <= 1
 0 <= x62 <= 1
 0 <= x63 <= 1
 0 <= x64 <= 1
 0 <= x65 <= 1
 0 <= x66 <= 1
 0 <= x67 <= 1
 0 <= x68 <= 1
 0 <= x69 <= 1
 0 <= x70 <= 1
 0 <= x71 <= 1
 0 <= x72 <= 1
 0 <= x73 <= 1
 0 <= x74 <= 1
 0 <= x75 <= 1
 0 <= x76 <= 1
 0 <= x77 <= 1
 0 <= x78 <= 1
 0 <= x79 <= 1
 0 <= x80 <= 1
 0 <= x81 <= 1
 0 <= x82 <= 1
 0 <= x83 <= 1
 0 <= x84 <= 1
 0 <= x85 <= 1
 0 <= x86 <= 1
 0 <= x87 <= 1
 0 <= x88 <= 1
 0 <= x89 <= 1
 0 <= x90 <= 1
 0 <= x91 <= 1
 0 <= x92 <= 1
 0 <= x93 <= 1
 0 <= x94 <= 1
 0 <= x95 <= 1
 0 <= x96 <= 1
 0 <= x97 <= 1
 0 <= x98 <= 1
 0 <= x99 <= 1
 0 <= x100 <= 1
 0 <= x101 <= 1
 0 <= x102 <= 1
 0 <= x103 <= 1
 0 <= x104 <= 1
 0 <= x105 <= 1
 0 <= x106 <= 1
 0 <= x107 <= 1
 0 <= x108 <= 1
 0 <= x109 <= 1
 0 <= x110 <= 1
 0 <= x111 <= 1
 0 <= x112 <= 1
 0 <= x113 <= 1
 0 <= x114 <= 1
 0 <= x115 <= 1
 0 <= x116 <= 1
 0 <= x117 <= 1
 0 <= x118 <= 1
 0 <= x119 <= 1
 0 <= x120 <= 1
 0 <= x121 <= 1
 0 <= x122 <= 1
 0 <= x123 <= 1
 0 <= x124 <= 1
 0 <= x125 <= 1
 0 <= x126 <= 1
 0 <= x127 <= 1
 0 <= x128 <= 1
 0 <= x129 <= 1
 0 <= x130 <= 1
 0 <= x131 <= 1
 0 <= x132 <= 1
 0 <= x133 <= 1
 0 <= x134 <= 1
 0 <= x135 <= 1
 0 <= x136 <= 1
 0 <= x137 <= 1
 0 <= x138 <= 1
 0 <= x139 <= 1
 0 <= x140 <= 1
 0 <= x141 <= 1
 0 <= x142 <= 1
 0 <= x143 <= 1
 0 <= x144 <= 1
 0 <= x145 <= 1
 0 <= x146 <= 1
 0 <= x147 <= 1
 0 <= x148 <= 1
 0 <= x149 <= 1
 0 <= x150 <= 1
 0 <= x151 <= 1
 0 <= x152 <= 1
 0 <= x153 <= 1
 0 <= x154 <= 1
 0 <= x155 <= 1
 0 <= x156 <= 1
 0 <= x157 <= 1
 0 <= x158 <= 1
 0 <= x159 <= 1
 0 <= x160 <= 1
 0 <= x161 <= 1
 0 <= x162 <= 1
 0 <= x163 <= 1
 0 <= x164 <= 1
 0 <= x165 <= 1
 0 <= x166 <= 1
 0 <= x167 <= 1
 0 <= x168 <= 1
 0 <= x169 <= 1
 0 <= x170 <= 1
 0 <= x171 <= 1
 0 <= x172 <= 1
 0 <= x173 <= 1
 0 <= x174 <= 1
 0 <= x175 <= 1
 0 <= x176 <= 1
 0 <= x177 <= 1
 0 <= x178 <= 1
 0 <= x179 <= 1
 0 <= x180 <= 1
 0 <= x181 <= 1
 0 <= x182 <= 1
 0 <= x183 <= 1
 0 <= x184 <= 1
 0 <= x185 <= 1
 0 <= x186 <= 1
 0 <= x187 <= 1
 0 <= x188 <= 1
 0 <= x189 <= 1
 0 <= x190 <= 1
 0 <= x191 <= 1
 0 <= x192 <= 1
 0 <= x193 <= 1
 0 <= x194 <= 1
 0 <= x195 <= 1
 0 <= x196 <= 1
 0 <= x197 <= 1
 0 <= x198 <= 1
 0 <= x199 <= 1
 0 <= x200 <= 1
 0 <= x201 <= 1
 0 <= x202 <= 1
 0 <= x203 <= 1
 0 <= x204 <= 1
 0 <= x205 <= 1
 0 <= x206 <= 1
 0 <= x207 <= 1
 0 <= x208 <= 1
 0 <= x209 <= 1
 0 <= x210 <= 1
 0 <= x211 <= 1
 0 <= x212 <= 1
 0 <= x213 <= 1
 0 <= x214 <= 1
 0 <= x215 <= 1
 0 <= x216 <= 1
 0 <= x217 <= 1
 0 <= x218 <= 1
 0 <= x219 <= 1
 0 <= x220 <= 1
 0 <= x221 <= 1
 0 <= x222 <= 1
 0 <= x223 <= 1
 0 <= x224 <= 1
 0 <= x225 <= 1
 0 <= x226 <= 1
 0 <= x227 <= 1
 0 <= x228 <= 1
 0 <= x229 <= 1
 0 <= x230 <= 1
 0 <= x231 <= 1
 0 <= x232 <= 1
 0 <= x233 <= 1
Binaries
 x1  x2  x3  x4  x5  x6  x7  x8  x9  x10  x11  x12  x13  x14  x15  x16  x17 
 x18  x19  x20  x21  x22  x23  x24  x25  x26  x27  x28  x29  x30  x31  x32 
 x33  x34  x35  x36  x37  x38  x39  x40  x41  x42  x43  x44  x45  x46  x47 
 x48  x49  x50  x51  x52  x53  x54  x55  x56  x57  x58  x59  x60  x61  x62 
 x63  x64  x65  x66  x67  x68  x69  x70  x71  x72  x73  x74  x75  x76  x77 
 x78  x79  x80  x81  x82  x83  x84  x85  x86  x87  x88  x89  x90  x91  x92 
 x93  x94  x95  x96  x97  x98  x99  x100  x101  x102  x103  x104  x105  x106 
 x107  x108  x109  x110  x111  x112  x113  x114  x115  x116  x117  x118  x119 
 x120  x121  x122  x123  x124  x125  x126  x127  x128  x129  x130  x131  x132 
 x133  x134  x135  x136  x137  x138  x139  x140  x141  x142  x143  x144  x145 
 x146  x147  x148  x149  x150  x151  x152  x153  x154  x155  x156  x157  x158 
 x159  x160  x161  x162  x163  x164  x165  x166  x167  x168  x169  x170  x171 
 x172  x173  x174  x175  x176  x177  x178  x179  x180  x181  x182  x183  x184 
 x185  x186  x187  x188  x189  x190  x191  x192  x193  x194  x195  x196  x197 
 x198  x199  x200  x201  x202  x203  x204  x205  x206  x207  x208  x209  x210 
 x211  x212  x213  x214  x215  x216  x217  x218  x219  x220  x221  x222  x223 
 x224  x225  x226  x227  x228  x229  x230  x231  x232  x233 
End
